Minimize
  obj: 1.0000000000000000e+00 x0 + 1.0000000000000000e+00 x1 + 1.0000000000000000e+00 x2 + 1.0000000000000000e+00 x3
Subject To
 C0_1 : 1.0000000000000000e+00 x0 + 5.0000000000000000e-01 x1 + 2.5000000000000000e-01 x2 + 1.2500000000000000e-01 x3 >= -1.0000000298018676e+00
 C0_2 : 1.0000000000000000e+00 x0 + 5.0000000000000000e-01 x1 + 2.5000000000000000e-01 x2 + 1.2500000000000000e-01 x3 <= -9.9999994039558282e-01
 C1_1 : 1.0000000000000000e+00 x0 + 5.0000005960464478e-01 x1 + 2.5000005960464833e-01 x2 + 1.2500004470348891e-01 x3 >= -9.9999994039512763e-01
 C1_2 : 1.0000000000000000e+00 x0 + 5.0000005960464478e-01 x1 + 2.5000005960464833e-01 x2 + 1.2500004470348891e-01 x3 <= -9.9999982118629338e-01
 C2_1 : 1.0000000000000000e+00 x0 + 5.0000035762786865e-01 x1 + 2.5000035762799655e-01 x2 + 1.2500026822109334e-01 x3 >= -9.9999898672081122e-01
 C2_2 : 1.0000000000000000e+00 x0 + 5.0000035762786865e-01 x1 + 2.5000035762799655e-01 x2 + 1.2500026822109334e-01 x3 <= -9.9999886751197697e-01
 C3_1 : 1.0000000000000000e+00 x0 + 5.0000154972076416e-01 x1 + 2.5000154972316579e-01 x2 + 1.2500116229417557e-01 x3 >= -9.9999552965141458e-01
 C3_2 : 1.0000000000000000e+00 x0 + 5.0000154972076416e-01 x1 + 2.5000154972316579e-01 x2 + 1.2500116229417557e-01 x3 <= -9.9999541044257989e-01
 C4_1 : 1.0000000000000000e+00 x0 + 5.0000208616256714e-01 x1 + 2.5000208616691921e-01 x2 + 1.2500156462845347e-01 x3 >= -9.9999409913993997e-01
 C4_2 : 1.0000000000000000e+00 x0 + 5.0000208616256714e-01 x1 + 2.5000208616691921e-01 x2 + 1.2500156462845347e-01 x3 <= -9.9999397993110528e-01
 C5_1 : 1.0000000000000000e+00 x0 + 5.0000572204589844e-01 x1 + 2.5000572207864025e-01 x2 + 1.2500429158353671e-01 x3 >= -9.9998360872245950e-01
 C5_2 : 1.0000000000000000e+00 x0 + 5.0000572204589844e-01 x1 + 2.5000572207864025e-01 x2 + 1.2500429158353671e-01 x3 <= -9.9998348951362481e-01
 C6_1 : 1.0000000000000000e+00 x0 + 5.0005608797073364e-01 x1 + 2.5005609111659410e-01 x2 + 1.2504207069701737e-01 x3 >= -9.9983829259849677e-01
 C6_2 : 1.0000000000000000e+00 x0 + 5.0005608797073364e-01 x1 + 2.5005609111659410e-01 x2 + 1.2504207069701737e-01 x3 <= -9.9983817338966252e-01
 C7_1 : 1.0000000000000000e+00 x0 + 5.0008666515350342e-01 x1 + 2.5008667266435225e-01 x2 + 1.2506501013205173e-01 x3 >= -9.9975007772422919e-01
 C7_2 : 1.0000000000000000e+00 x0 + 5.0008666515350342e-01 x1 + 2.5008667266435225e-01 x2 + 1.2506501013205173e-01 x3 <= -9.9974995851539494e-01
 C8_1 : 1.0000000000000000e+00 x0 + 5.0013422966003418e-01 x1 + 2.5013424767763581e-01 x2 + 1.2510069927384657e-01 x3 >= -9.9961274862266669e-01
 C8_2 : 1.0000000000000000e+00 x0 + 5.0013422966003418e-01 x1 + 2.5013424767763581e-01 x2 + 1.2510069927384657e-01 x3 <= -9.9961262941383244e-01
 C9_1 : 1.0000000000000000e+00 x0 + 5.0017088651657104e-01 x1 + 2.5017091571877259e-01 x2 + 1.2512820869572086e-01 x3 >= -9.9950700998283548e-01
 C9_2 : 1.0000000000000000e+00 x0 + 5.0017088651657104e-01 x1 + 2.5017091571877259e-01 x2 + 1.2512820869572086e-01 x3 <= -9.9950689077400079e-01
 C10_1 : 1.0000000000000000e+00 x0 + 5.0018841028213501e-01 x1 + 2.5018844578056942e-01 x2 + 1.2514136096594114e-01 x3 >= -9.9945646524406595e-01
 C10_2 : 1.0000000000000000e+00 x0 + 5.0018841028213501e-01 x1 + 2.5018844578056942e-01 x2 + 1.2514136096594114e-01 x3 <= -9.9945634603523126e-01
 C11_1 : 1.0000000000000000e+00 x0 + 5.0022238492965698e-01 x1 + 2.5022243438471392e-01 x2 + 1.2516686289082618e-01 x3 >= -9.9935859441734443e-01
 C11_2 : 1.0000000000000000e+00 x0 + 5.0022238492965698e-01 x1 + 2.5022243438471392e-01 x2 + 1.2516686289082618e-01 x3 <= -9.9935847520851018e-01
 C12_1 : 1.0000000000000000e+00 x0 + 5.0023061037063599e-01 x1 + 2.5023066355177903e-01 x2 + 1.2517303756195566e-01 x3 >= -9.9933475255943427e-01
 C12_2 : 1.0000000000000000e+00 x0 + 5.0023061037063599e-01 x1 + 2.5023066355177903e-01 x2 + 1.2517303756195566e-01 x3 <= -9.9933463335060002e-01
 C13_1 : 1.0000000000000000e+00 x0 + 5.0025004148483276e-01 x1 + 2.5025010400557690e-01 x2 + 1.2518762491037355e-01 x3 >= -9.9927872419334540e-01
 C13_2 : 1.0000000000000000e+00 x0 + 5.0025004148483276e-01 x1 + 2.5025010400557690e-01 x2 + 1.2518762491037355e-01 x3 <= -9.9927860498451115e-01
 C14_1 : 1.0000000000000000e+00 x0 + 5.0032395124435425e-01 x1 + 2.5032405618876297e-01 x2 + 1.2524312088387562e-01 x3 >= -9.9906557798362861e-01
 C14_2 : 1.0000000000000000e+00 x0 + 5.0032395124435425e-01 x1 + 2.5032405618876297e-01 x2 + 1.2524312088387562e-01 x3 <= -9.9906545877479436e-01
 C15_1 : 1.0000000000000000e+00 x0 + 5.0032907724380493e-01 x1 + 2.5032918553563732e-01 x2 + 1.2524697040623864e-01 x3 >= -9.9905091524101419e-01
 C15_2 : 1.0000000000000000e+00 x0 + 5.0032907724380493e-01 x1 + 2.5032918553563732e-01 x2 + 1.2524697040623864e-01 x3 <= -9.9905079603217950e-01
 C16_1 : 1.0000000000000000e+00 x0 + 5.0034230947494507e-01 x1 + 2.5034242665072171e-01 x2 + 1.2525690790998412e-01 x3 >= -9.9901264905906806e-01
 C16_2 : 1.0000000000000000e+00 x0 + 5.0034230947494507e-01 x1 + 2.5034242665072171e-01 x2 + 1.2525690790998412e-01 x3 <= -9.9901252985023381e-01
 C17_1 : 1.0000000000000000e+00 x0 + 5.0036281347274780e-01 x1 + 2.5036294510636381e-01 x2 + 1.2527230760274330e-01 x3 >= -9.9895352125145087e-01
 C17_2 : 1.0000000000000000e+00 x0 + 5.0036281347274780e-01 x1 + 2.5036294510636381e-01 x2 + 1.2527230760274330e-01 x3 <= -9.9895340204261662e-01
 C18_1 : 1.0000000000000000e+00 x0 + 5.0036740303039551e-01 x1 + 2.5036753801538225e-01 x2 + 1.2527575479987063e-01 x3 >= -9.9894028902031107e-01
 C18_2 : 1.0000000000000000e+00 x0 + 5.0036740303039551e-01 x1 + 2.5036753801538225e-01 x2 + 1.2527575479987063e-01 x3 <= -9.9894016981147638e-01
 C19_1 : 1.0000000000000000e+00 x0 + 5.0050002336502075e-01 x1 + 2.5050027338838632e-01 x2 + 1.2537539268383144e-01 x3 >= -9.9855798482872138e-01
 C19_2 : 1.0000000000000000e+00 x0 + 5.0050002336502075e-01 x1 + 2.5050027338838632e-01 x2 + 1.2537539268383144e-01 x3 <= -9.9855786561988713e-01
 C20_1 : 1.0000000000000000e+00 x0 + 5.0051647424697876e-01 x1 + 2.5051674099262655e-01 x2 + 1.2538775594147300e-01 x3 >= -9.9851053953148017e-01
 C20_2 : 1.0000000000000000e+00 x0 + 5.0051647424697876e-01 x1 + 2.5051674099262655e-01 x2 + 1.2538775594147300e-01 x3 <= -9.9851042032264592e-01
 C21_1 : 1.0000000000000000e+00 x0 + 5.0055444240570068e-01 x1 + 2.5055474981208192e-01 x2 + 1.2541629308428648e-01 x3 >= -9.9840110540367255e-01
 C21_2 : 1.0000000000000000e+00 x0 + 5.0055444240570068e-01 x1 + 2.5055474981208192e-01 x2 + 1.2541629308428648e-01 x3 <= -9.9840098619483830e-01
 C22_1 : 1.0000000000000000e+00 x0 + 5.0066244602203369e-01 x1 + 2.5066288485676580e-01 x2 + 1.2549749305932775e-01 x3 >= -9.9808984994865579e-01
 C22_2 : 1.0000000000000000e+00 x0 + 5.0066244602203369e-01 x1 + 2.5066288485676580e-01 x2 + 1.2549749305932775e-01 x3 <= -9.9808973073982110e-01
 C23_1 : 1.0000000000000000e+00 x0 + 5.0069814920425415e-01 x1 + 2.5069863661656555e-01 x2 + 1.2552434336194421e-01 x3 >= -9.9798697233177314e-01
 C23_2 : 1.0000000000000000e+00 x0 + 5.0069814920425415e-01 x1 + 2.5069863661656555e-01 x2 + 1.2552434336194421e-01 x3 <= -9.9798685312293889e-01
 C24_1 : 1.0000000000000000e+00 x0 + 5.0070166587829590e-01 x1 + 2.5070215821330066e-01 x2 + 1.2552698825668374e-01 x3 >= -9.9797683954216165e-01
 C24_2 : 1.0000000000000000e+00 x0 + 5.0070166587829590e-01 x1 + 2.5070215821330066e-01 x2 + 1.2552698825668374e-01 x3 <= -9.9797672033332696e-01
 C25_1 : 1.0000000000000000e+00 x0 + 5.0071370601654053e-01 x1 + 2.5071421539281857e-01 x2 + 1.2553604394036735e-01 x3 >= -9.9794214963890204e-01
 C25_2 : 1.0000000000000000e+00 x0 + 5.0071370601654053e-01 x1 + 2.5071421539281857e-01 x2 + 1.2553604394036735e-01 x3 <= -9.9794203043006779e-01
 C26_1 : 1.0000000000000000e+00 x0 + 5.0075000524520874e-01 x1 + 2.5075056775307658e-01 x2 + 1.2556334811759215e-01 x3 >= -9.9783760309196634e-01
 C26_2 : 1.0000000000000000e+00 x0 + 5.0075000524520874e-01 x1 + 2.5075056775307658e-01 x2 + 1.2556334811759215e-01 x3 <= -9.9783748388313165e-01
 C27_1 : 1.0000000000000000e+00 x0 + 5.0092649459838867e-01 x1 + 2.5092735299062952e-01 x2 + 1.2569615933244854e-01 x3 >= -9.9732917547203193e-01
 C27_2 : 1.0000000000000000e+00 x0 + 5.0092649459838867e-01 x1 + 2.5092735299062952e-01 x2 + 1.2569615933244854e-01 x3 <= -9.9732905626319768e-01
 C28_1 : 1.0000000000000000e+00 x0 + 5.0094884634017944e-01 x1 + 2.5094974664955672e-01 x2 + 1.2571298607345574e-01 x3 >= -9.9726492166496439e-01
 C28_2 : 1.0000000000000000e+00 x0 + 5.0094884634017944e-01 x1 + 2.5094974664955672e-01 x2 + 1.2571298607345574e-01 x3 <= -9.9726480245612970e-01
 C29_1 : 1.0000000000000000e+00 x0 + 5.0099843740463257e-01 x1 + 2.5099943428188354e-01 x2 + 1.2575032436467040e-01 x3 >= -9.9712210893608255e-01
 C29_2 : 1.0000000000000000e+00 x0 + 5.0099843740463257e-01 x1 + 2.5099943428188354e-01 x2 + 1.2575032436467040e-01 x3 <= -9.9712198972724786e-01
 C30_1 : 1.0000000000000000e+00 x0 + 5.0100004673004150e-01 x1 + 2.5100104682350377e-01 x2 + 1.2575153618786472e-01 x3 >= -9.9711745977378974e-01
 C30_2 : 1.0000000000000000e+00 x0 + 5.0100004673004150e-01 x1 + 2.5100104682350377e-01 x2 + 1.2575153618786472e-01 x3 <= -9.9711734056495549e-01
 C31_1 : 1.0000000000000000e+00 x0 + 5.0122207403182983e-01 x1 + 2.5122356749676911e-01 x2 + 1.2591879754640600e-01 x3 >= -9.9647825956321845e-01
 C31_2 : 1.0000000000000000e+00 x0 + 5.0122207403182983e-01 x1 + 2.5122356749676911e-01 x2 + 1.2591879754640600e-01 x3 <= -9.9647814035438420e-01
 C32_1 : 1.0000000000000000e+00 x0 + 5.0125002861022949e-01 x1 + 2.5125159118175588e-01 x2 + 1.2593986726822082e-01 x3 >= -9.9639779329277200e-01
 C32_2 : 1.0000000000000000e+00 x0 + 5.0125002861022949e-01 x1 + 2.5125159118175588e-01 x2 + 1.2593986726822082e-01 x3 <= -9.9639767408393731e-01
 C33_1 : 1.0000000000000000e+00 x0 + 5.0131154060363770e-01 x1 + 2.5131326074239269e-01 x2 + 1.2598623791689256e-01 x3 >= -9.9622076749778876e-01
 C33_2 : 1.0000000000000000e+00 x0 + 5.0131154060363770e-01 x1 + 2.5131326074239269e-01 x2 + 1.2598623791689256e-01 x3 <= -9.9622064828895451e-01
 C34_1 : 1.0000000000000000e+00 x0 + 5.0136029720306396e-01 x1 + 2.5136214761154463e-01 x2 + 1.2602300103212444e-01 x3 >= -9.9608045816398783e-01
 C34_2 : 1.0000000000000000e+00 x0 + 5.0136029720306396e-01 x1 + 2.5136214761154463e-01 x2 + 1.2602300103212444e-01 x3 <= -9.9608033895515313e-01
 C35_1 : 1.0000000000000000e+00 x0 + 5.0144046545028687e-01 x1 + 2.5144254039100034e-01 x2 + 1.2608346448766575e-01 x3 >= -9.9584978818870673e-01
 C35_2 : 1.0000000000000000e+00 x0 + 5.0144046545028687e-01 x1 + 2.5144254039100034e-01 x2 + 1.2608346448766575e-01 x3 <= -9.9584966897987248e-01
 C36_1 : 1.0000000000000000e+00 x0 + 5.0146710872650146e-01 x1 + 2.5146926113451684e-01 x2 + 1.2610356331471573e-01 x3 >= -9.9577313661552591e-01
 C36_2 : 1.0000000000000000e+00 x0 + 5.0146710872650146e-01 x1 + 2.5146926113451684e-01 x2 + 1.2610356331471573e-01 x3 <= -9.9577301740669122e-01
 C37_1 : 1.0000000000000000e+00 x0 + 5.0147485733032227e-01 x1 + 2.5147703253446707e-01 x2 + 1.2610940901207468e-01 x3 >= -9.9575084447837958e-01
 C37_2 : 1.0000000000000000e+00 x0 + 5.0147485733032227e-01 x1 + 2.5147703253446707e-01 x2 + 1.2610940901207468e-01 x3 <= -9.9575072526954533e-01
 C38_1 : 1.0000000000000000e+00 x0 + 5.0150001049041748e-01 x1 + 2.5150226052188884e-01 x2 + 1.2612838629009096e-01 x3 >= -9.9567836523033271e-01
 C38_2 : 1.0000000000000000e+00 x0 + 5.0150001049041748e-01 x1 + 2.5150226052188884e-01 x2 + 1.2612838629009096e-01 x3 <= -9.9567824602149846e-01
 C39_1 : 1.0000000000000000e+00 x0 + 5.0160664319992065e-01 x1 + 2.5160922450229251e-01 x2 + 1.2620885850073016e-01 x3 >= -9.9537175893760810e-01
 C39_2 : 1.0000000000000000e+00 x0 + 5.0160664319992065e-01 x1 + 2.5160922450229251e-01 x2 + 1.2620885850073016e-01 x3 <= -9.9537163972877385e-01
 C40_1 : 1.0000000000000000e+00 x0 + 5.0162011384963989e-01 x1 + 2.5162273861852569e-01 x2 + 1.2621902679298302e-01 x3 >= -9.9533301591850443e-01
 C40_2 : 1.0000000000000000e+00 x0 + 5.0162011384963989e-01 x1 + 2.5162273861852569e-01 x2 + 1.2621902679298302e-01 x3 <= -9.9533289670966973e-01
 C41_1 : 1.0000000000000000e+00 x0 + 5.0164079666137695e-01 x1 + 2.5164348887506094e-01 x2 + 1.2623464023393391e-01 x3 >= -9.9527353048301825e-01
 C41_2 : 1.0000000000000000e+00 x0 + 5.0164079666137695e-01 x1 + 2.5164348887506094e-01 x2 + 1.2623464023393391e-01 x3 <= -9.9527341127418401e-01
 C42_1 : 1.0000000000000000e+00 x0 + 5.0174999237060547e-01 x1 + 2.5175305484390265e-01 x2 + 1.2631709334720476e-01 x3 >= -9.9495941400505228e-01
 C42_2 : 1.0000000000000000e+00 x0 + 5.0174999237060547e-01 x1 + 2.5175305484390265e-01 x2 + 1.2631709334720476e-01 x3 <= -9.9495929479621759e-01
 C43_1 : 1.0000000000000000e+00 x0 + 5.0177204608917236e-01 x1 + 2.5177518623651451e-01 x2 + 1.2633375035237832e-01 x3 >= -9.9489611387230048e-01
 C43_2 : 1.0000000000000000e+00 x0 + 5.0177204608917236e-01 x1 + 2.5177518623651451e-01 x2 + 1.2633375035237832e-01 x3 <= -9.9489599466346623e-01
 C44_1 : 1.0000000000000000e+00 x0 + 5.0197172164916992e-01 x1 + 2.5197560933543173e-01 x2 + 1.2648463043170530e-01 x3 >= -9.9432212114311380e-01
 C44_2 : 1.0000000000000000e+00 x0 + 5.0197172164916992e-01 x1 + 2.5197560933543173e-01 x2 + 1.2648463043170530e-01 x3 <= -9.9432200193427911e-01
 C45_1 : 1.0000000000000000e+00 x0 + 5.0197213888168335e-01 x1 + 2.5197602821345200e-01 x2 + 1.2648494582921788e-01 x3 >= -9.9432080984092841e-01
 C45_2 : 1.0000000000000000e+00 x0 + 5.0197213888168335e-01 x1 + 2.5197602821345200e-01 x2 + 1.2648494582921788e-01 x3 <= -9.9432069063209416e-01
 C46_1 : 1.0000000000000000e+00 x0 + 5.0199395418167114e-01 x1 + 2.5199793003494975e-01 x2 + 1.2650143734384051e-01 x3 >= -9.9425822496391458e-01
 C46_2 : 1.0000000000000000e+00 x0 + 5.0199395418167114e-01 x1 + 2.5199793003494975e-01 x2 + 1.2650143734384051e-01 x3 <= -9.9425810575507989e-01
 C47_1 : 1.0000000000000000e+00 x0 + 5.0199997425079346e-01 x1 + 2.5200397414779729e-01 x2 + 1.2650598853329184e-01 x3 >= -9.9424082040764017e-01
 C47_2 : 1.0000000000000000e+00 x0 + 5.0199997425079346e-01 x1 + 2.5200397414779729e-01 x2 + 1.2650598853329184e-01 x3 <= -9.9424070119880548e-01
 C48_1 : 1.0000000000000000e+00 x0 + 5.0204306840896606e-01 x1 + 2.5204724253748978e-01 x2 + 1.2653857102754024e-01 x3 >= -9.9411708116508646e-01
 C48_2 : 1.0000000000000000e+00 x0 + 5.0204306840896606e-01 x1 + 2.5204724253748978e-01 x2 + 1.2653857102754024e-01 x3 <= -9.9411696195625177e-01
 C49_1 : 1.0000000000000000e+00 x0 + 5.0210571289062500e-01 x1 + 2.5211014691740274e-01 x2 + 1.2658594504492271e-01 x3 >= -9.9393695592857489e-01
 C49_2 : 1.0000000000000000e+00 x0 + 5.0210571289062500e-01 x1 + 2.5211014691740274e-01 x2 + 1.2658594504492271e-01 x3 <= -9.9393683671974065e-01
 C50_1 : 1.0000000000000000e+00 x0 + 5.0216019153594971e-01 x1 + 2.5216485796342170e-01 x2 + 1.2662715337354738e-01 x3 >= -9.9378043413139505e-01
 C50_2 : 1.0000000000000000e+00 x0 + 5.0216019153594971e-01 x1 + 2.5216485796342170e-01 x2 + 1.2662715337354738e-01 x3 <= -9.9378031492256036e-01
 C51_1 : 1.0000000000000000e+00 x0 + 5.0219351053237915e-01 x1 + 2.5219832202083481e-01 x2 + 1.2665236068601843e-01 x3 >= -9.9368470907188544e-01
 C51_2 : 1.0000000000000000e+00 x0 + 5.0219351053237915e-01 x1 + 2.5219832202083481e-01 x2 + 1.2665236068601843e-01 x3 <= -9.9368458986305119e-01
 C52_1 : 1.0000000000000000e+00 x0 + 5.0224995613098145e-01 x1 + 2.5225501843357279e-01 x2 + 1.2669507194208182e-01 x3 >= -9.9352258443809638e-01
 C52_2 : 1.0000000000000000e+00 x0 + 5.0224995613098145e-01 x1 + 2.5225501843357279e-01 x2 + 1.2669507194208182e-01 x3 <= -9.9352246522926213e-01
 C53_1 : 1.0000000000000000e+00 x0 + 5.0227522850036621e-01 x1 + 2.5228040516509509e-01 x2 + 1.2671419815046309e-01 x3 >= -9.9344998598076029e-01
 C53_2 : 1.0000000000000000e+00 x0 + 5.0227522850036621e-01 x1 + 2.5228040516509509e-01 x2 + 1.2671419815046309e-01 x3 <= -9.9344986677192559e-01
 C54_1 : 1.0000000000000000e+00 x0 + 5.0227999687194824e-01 x1 + 2.5228519525768434e-01 x2 + 1.2671780708486852e-01 x3 >= -9.9343627691246161e-01
 C54_2 : 1.0000000000000000e+00 x0 + 5.0227999687194824e-01 x1 + 2.5228519525768434e-01 x2 + 1.2671780708486852e-01 x3 <= -9.9343615770362736e-01
 C55_1 : 1.0000000000000000e+00 x0 + 5.0233316421508789e-01 x1 + 2.5233860787034246e-01 x2 + 1.2675805134513940e-01 x3 >= -9.9328356981254740e-01
 C55_2 : 1.0000000000000000e+00 x0 + 5.0233316421508789e-01 x1 + 2.5233860787034246e-01 x2 + 1.2675805134513940e-01 x3 <= -9.9328345060371270e-01
 C56_1 : 1.0000000000000000e+00 x0 + 5.0235503911972046e-01 x1 + 2.5236058532897587e-01 x2 + 1.2677461171521320e-01 x3 >= -9.9322074651695380e-01
 C56_2 : 1.0000000000000000e+00 x0 + 5.0235503911972046e-01 x1 + 2.5236058532897587e-01 x2 + 1.2677461171521320e-01 x3 <= -9.9322062730811955e-01
 C57_1 : 1.0000000000000000e+00 x0 + 5.0236380100250244e-01 x1 + 2.5236938855768187e-01 x2 + 1.2678124529251450e-01 x3 >= -9.9319559335685892e-01
 C57_2 : 1.0000000000000000e+00 x0 + 5.0236380100250244e-01 x1 + 2.5236938855768187e-01 x2 + 1.2678124529251450e-01 x3 <= -9.9319547414802423e-01
 C58_1 : 1.0000000000000000e+00 x0 + 5.0237500667572021e-01 x1 + 2.5238064733242993e-01 x2 + 1.2678972938845207e-01 x3 >= -9.9316340684868021e-01
 C58_2 : 1.0000000000000000e+00 x0 + 5.0237500667572021e-01 x1 + 2.5238064733242993e-01 x2 + 1.2678972938845207e-01 x3 <= -9.9316328763984552e-01
 C59_1 : 1.0000000000000000e+00 x0 + 5.0238060951232910e-01 x1 + 2.5238627681397929e-01 x2 + 1.2679397157835431e-01 x3 >= -9.9314731359459052e-01
 C59_2 : 1.0000000000000000e+00 x0 + 5.0238060951232910e-01 x1 + 2.5238627681397929e-01 x2 + 1.2679397157835431e-01 x3 <= -9.9314719438575627e-01
 C60_1 : 1.0000000000000000e+00 x0 + 5.0243669748306274e-01 x1 + 2.5244263497768671e-01 x2 + 1.2683644382211121e-01 x3 >= -9.9298626184440775e-01
 C60_2 : 1.0000000000000000e+00 x0 + 5.0243669748306274e-01 x1 + 2.5244263497768671e-01 x2 + 1.2683644382211121e-01 x3 <= -9.9298614263557305e-01
 C61_1 : 1.0000000000000000e+00 x0 + 5.0244462490081787e-01 x1 + 2.5245060109172357e-01 x2 + 1.2684244757151703e-01 x3 >= -9.9296349287010321e-01
 C61_2 : 1.0000000000000000e+00 x0 + 5.0244462490081787e-01 x1 + 2.5245060109172357e-01 x2 + 1.2684244757151703e-01 x3 <= -9.9296337366126897e-01
 C62_1 : 1.0000000000000000e+00 x0 + 5.0247102975845337e-01 x1 + 2.5247713574652053e-01 x2 + 1.2686244638901897e-01 x3 >= -9.9288767576194892e-01
 C62_2 : 1.0000000000000000e+00 x0 + 5.0247102975845337e-01 x1 + 2.5247713574652053e-01 x2 + 1.2686244638901897e-01 x3 <= -9.9288755655311467e-01
Bounds
  x0 free
  x1 free
  x2 free
  x3 free
End
